% MIT License
%
% Copyright (c) 2021 Johan Ludde Wessén
%
% Permission is hereby granted, free of charge, to any person obtaining 
% a copy of this software and associated documentation files (the "Software"),
% to deal in the Software without restriction, including without limitation 
% the rights to use, copy, modify, merge, publish, distribute, sublicense, 
% and/or sell copies of the Software, and to permit persons to whom the 
% Software is furnished to do so, subject to the following conditions:
% 
% The above copyright notice and this permission notice shall be included 
% in all copies or substantial portions of the Software.
%
% THE SOFTWARE IS PROVIDED "AS IS", WITHOUT WARRANTY OF ANY KIND, 
% EXPRESS OR IMPLIED, INCLUDING BUT NOT LIMITED TO THE WARRANTIES OF
% MERCHANTABILITY, FITNESS FOR A PARTICULAR PURPOSE AND
% NONINFRINGEMENT. IN NO EVENT SHALL THE AUTHORS OR COPYRIGHT HOLDERS BE
% LIABLE FOR ANY CLAIM, DAMAGES OR OTHER LIABILITY, WHETHER IN AN ACTION
% OF CONTRACT, TORT OR OTHERWISE, ARISING FROM, OUT OF OR IN CONNECTION
% WITH THE SOFTWARE OR THE USE OR OTHER DEALINGS IN THE SOFTWARE.

%-----------------------------------------------------------------------------%
% Dual Arm Multi Capacity Multi Tool Scheduling / Routing
% Assembly Configuration
% Auto Generated by python script, authored by Johan Ludde Wessen 
%-----------------------------------------------------------------------------%


task_durations = [|31, 26, 25, 25, 27, 24, 30, 49, 53, 62, 56, 59, 38, 56,  8,  6,  6,  4,  8,  4
                  |27, 22, 26, 23, 21, 27, 23, 43, 57, 58, 57, 55, 44, 52,  8,  5,  7,  4,  7,  6
                  |];


TRAY_TASKS = 1..5;
CAMERA_TASKS = {  };
OUTPUT_TASKS = { 14 };


empty_gripper_tasks = 15..20;


gripper_pick_tasks_orders = [|1, 8, -1
|2, 9, -1
|3, 10, -1
|4, 11, -1
|5, 12, -1
|6, 13, -1
|7, 14, -1
|];

suction_pick_tasks_orders = [||];

fixture_task_orders = [|8, 15, 9, 16, 6, -1, -1, -1, -1, -1
|10, 17, 11, 18, 12, 19, 13, 20, 7, -1
|];

